1040
1 0 5 521 0 1040 1 1039 1 1038 1 1037 1
2 0 5 522 1 1009 1 919 1 786 1 712 1
3 0 5 523 1 734 1 906 1 664 1 551 1
4 0 5 524 1 916 1 719 1 982 1 538 1
5 0 5 525 1 725 1 1020 1 638 1 704 1
6 0 5 526 1 1017 1 1004 1 799 1 689 1
7 0 5 527 1 631 1 767 1 713 1 917 1
8 0 5 528 1 824 1 801 1 840 1 964 1
9 0 5 529 1 950 1 1015 1 662 1 727 1
10 0 5 530 1 926 1 626 1 898 1 924 1
11 0 5 531 1 701 1 714 1 830 1 904 1
12 0 5 532 1 925 1 773 1 720 1 764 1
13 0 5 533 1 550 1 901 1 607 1 644 1
14 0 5 534 1 826 1 764 1 760 1 637 1
15 0 5 535 1 555 1 763 1 648 1 922 1
16 0 5 536 1 835 1 766 1 652 1 653 1
17 0 5 537 1 574 1 771 1 733 1 977 1
18 0 5 538 1 943 1 719 1 628 1 554 1
19 0 5 539 1 897 1 554 1 965 1 744 1
20 0 5 540 1 906 1 908 1 972 1 959 1
21 0 5 541 1 525 1 910 1 638 1 1020 1
22 0 5 542 1 878 1 916 1 807 1 802 1
23 0 5 543 1 931 1 737 1 823 1 643 1
24 0 5 544 1 659 1 584 1 575 1 951 1
25 0 5 545 1 612 1 915 1 941 1 833 1
26 0 5 546 1 940 1 758 1 891 1 1015 1
27 0 5 547 1 872 1 788 1 966 1 659 1
28 0 5 548 1 875 1 549 1 664 1 844 1
29 0 5 549 1 768 1 877 1 633 1 664 1
30 0 5 550 1 607 1 533 1 615 1 934 1
31 0 5 551 1 730 1 734 1 583 1 996 1
32 0 5 552 1 683 1 538 1 742 1 813 1
33 0 5 553 1 651 1 751 1 568 1 922 1
34 0 5 554 1 744 1 669 1 628 1 965 1
35 0 5 555 1 763 1 535 1 522 1 786 1
36 0 5 556 1 764 1 932 1 925 1 760 1
37 0 5 557 1 846 1 731 1 642 1 661 1
38 0 5 558 1 650 1 834 1 953 1 831 1
39 0 5 559 1 963 1 948 1 657 1 954 1
40 0 5 560 1 765 1 699 1 639 1 915 1
41 0 5 561 1 709 1 562 1 1003 1 761 1
42 0 5 562 1 813 1 742 1 1003 1 561 1
43 0 5 563 1 867 1 903 1 654 1 946 1
44 0 5 564 1 922 1 676 1 706 1 571 1
45 0 5 565 1 589 1 617 1 958 1 979 1
46 0 5 566 1 772 1 747 1 608 1 983 1
47 0 5 567 1 889 1 1003 1 973 1 988 1
48 0 5 568 1 553 1 588 1 751 1 818 1
49 0 5 569 1 1002 1 685 1 911 1 587 1
50 0 5 570 1 658 1 842 1 990 1 597 1
51 0 5 571 1 648 1 740 1 680 1 922 1
52 0 5 572 1 795 1 966 1 930 1 760 1
53 0 5 573 1 674 1 597 1 759 1 658 1
54 0 5 574 1 771 1 977 1 537 1 733 1
55 0 5 575 1 974 1 888 1 951 1 584 1
56 0 5 576 1 585 1 714 1 660 1 666 1
57 0 5 577 1 583 1 909 1 730 1 734 1
58 0 5 578 1 929 1 833 1 715 1 995 1
59 0 5 579 1 861 1 635 1 633 1 875 1
60 0 5 580 1 739 1 999 1 752 1 885 1
61 0 5 581 1 759 1 674 1 990 1 831 1
62 0 5 582 1 716 1 654 1 642 1 867 1
63 0 5 583 1 754 1 1005 1 551 1 996 1
64 0 5 584 1 888 1 659 1 544 1 575 1
65 0 5 585 1 660 1 576 1 597 1 666 1
66 0 5 586 1 527 1 964 1 1000 1 840 1
67 0 5 587 1 636 1 933 1 736 1 738 1
68 0 5 588 1 751 1 946 1 568 1 651 1
69 0 5 589 1 958 1 617 1 1005 1 979 1
70 0 5 590 1 521 1 771 1 733 1 1016 1
71 0 5 591 1 576 1 547 1 666 1 913 1
72 0 5 592 1 629 1 823 1 737 1 643 1
73 0 5 593 1 622 1 1013 1 624 1 706 1
74 0 5 594 1 785 1 690 1 908 1 624 1
75 0 5 595 1 992 1 769 1 677 1 630 1
76 0 5 596 1 939 1 654 1 716 1 970 1
77 0 5 597 1 573 1 630 1 674 1 570 1
78 0 5 598 1 988 1 567 1 1003 1 770 1
79 0 5 599 1 941 1 618 1 962 1 816 1
80 0 5 600 1 724 1 817 1 968 1 681 1
81 0 5 601 1 711 1 987 1 541 1 525 1
82 0 5 602 1 976 1 981 1 869 1 614 1
83 0 5 603 1 605 1 707 1 984 1 685 1
84 0 5 604 1 900 1 777 1 817 1 691 1
85 0 5 605 1 707 1 603 1 685 1 984 1
86 0 5 606 1 895 1 841 1 699 1 839 1
87 0 5 607 1 550 1 533 1 646 1 615 1
88 0 5 608 1 688 1 792 1 880 1 811 1
89 0 5 609 1 825 1 871 1 832 1 690 1
90 0 5 610 1 970 1 928 1 846 1 661 1
91 0 5 611 1 947 1 848 1 639 1 765 1
92 0 5 612 1 833 1 545 1 941 1 816 1
93 0 5 613 1 1011 1 1004 1 533 1 607 1
94 0 5 614 1 602 1 976 1 866 1 869 1
95 0 5 615 1 646 1 607 1 550 1 934 1
96 0 5 616 1 967 1 899 1 848 1 819 1
97 0 5 617 1 924 1 958 1 589 1 974 1
98 0 5 618 1 599 1 941 1 962 1 560 1
99 0 5 619 1 658 1 990 1 570 1 842 1
100 0 5 620 1 789 1 838 1 854 1 585 1
101 0 5 621 1 623 1 692 1 646 1 615 1
102 0 5 622 1 624 1 756 1 796 1 593 1
103 0 5 623 1 927 1 892 1 713 1 621 1
104 0 5 624 1 1013 1 796 1 706 1 843 1
105 0 5 625 1 546 1 891 1 940 1 669 1
106 0 5 626 1 814 1 665 1 697 1 827 1
107 0 5 627 1 671 1 864 1 957 1 933 1
108 0 5 628 1 744 1 662 1 1015 1 940 1
109 0 5 629 1 998 1 620 1 1008 1 668 1
110 0 5 630 1 595 1 819 1 849 1 585 1
111 0 5 631 1 527 1 767 1 1000 1 964 1
112 0 5 632 1 820 1 756 1 843 1 798 1
113 0 5 633 1 635 1 549 1 721 1 807 1
114 0 5 634 1 782 1 808 1 718 1 696 1
115 0 5 635 1 633 1 549 1 579 1 750 1
116 0 5 636 1 787 1 587 1 1002 1 736 1
117 0 5 637 1 995 1 534 1 760 1 826 1
118 0 5 638 1 812 1 1020 1 704 1 816 1
119 0 5 639 1 611 1 765 1 947 1 560 1
120 0 5 640 1 857 1 850 1 650 1 834 1
121 0 5 641 1 837 1 889 1 980 1 794 1
122 0 5 642 1 655 1 731 1 682 1 939 1
123 0 5 643 1 592 1 1008 1 629 1 823 1
124 0 5 644 1 756 1 901 1 632 1 622 1
125 0 5 645 1 727 1 950 1 907 1 738 1
126 0 5 646 1 615 1 607 1 808 1 934 1
127 0 5 647 1 982 1 989 1 993 1 1019 1
128 0 5 648 1 922 1 535 1 679 1 938 1
129 0 5 649 1 969 1 726 1 795 1 637 1
130 0 5 650 1 954 1 821 1 789 1 657 1
131 0 5 651 1 751 1 553 1 568 1 588 1
132 0 5 652 1 536 1 745 1 766 1 691 1
133 0 5 653 1 861 1 784 1 835 1 837 1
134 0 5 654 1 582 1 728 1 894 1 716 1
135 0 5 655 1 731 1 741 1 694 1 642 1
136 0 5 656 1 898 1 827 1 862 1 909 1
137 0 5 657 1 948 1 954 1 650 1 831 1
138 0 5 658 1 591 1 576 1 570 1 714 1
139 0 5 659 1 920 1 544 1 584 1 547 1
140 0 5 660 1 585 1 714 1 576 1 597 1
141 0 5 661 1 557 1 846 1 610 1 703 1
142 0 5 662 1 757 1 529 1 1015 1 628 1
143 0 5 663 1 761 1 885 1 980 1 1003 1
144 0 5 664 1 918 1 906 1 877 1 548 1
145 0 5 665 1 697 1 698 1 626 1 814 1
146 0 5 666 1 591 1 576 1 585 1 913 1
147 0 5 667 1 832 1 914 1 972 1 723 1
148 0 5 668 1 620 1 1008 1 629 1 998 1
149 0 5 669 1 625 1 891 1 539 1 965 1
150 0 5 670 1 987 1 870 1 899 1 848 1
151 0 5 671 1 864 1 625 1 779 1 937 1
152 0 5 672 1 876 1 931 1 845 1 643 1
153 0 5 673 1 934 1 692 1 621 1 623 1
154 0 5 674 1 990 1 573 1 597 1 842 1
155 0 5 675 1 912 1 977 1 991 1 736 1
156 0 5 676 1 790 1 938 1 680 1 822 1
157 0 5 677 1 590 1 769 1 992 1 780 1
158 0 5 678 1 1021 1 914 1 972 1 667 1
159 0 5 679 1 827 1 790 1 680 1 676 1
160 0 5 680 1 679 1 827 1 684 1 1007 1
161 0 5 681 1 815 1 748 1 817 1 791 1
162 0 5 682 1 828 1 1018 1 975 1 939 1
163 0 5 683 1 538 1 719 1 943 1 524 1
164 0 5 684 1 1006 1 1007 1 680 1 571 1
165 0 5 685 1 911 1 991 1 1002 1 736 1
166 0 5 686 1 712 1 690 1 938 1 919 1
167 0 5 687 1 998 1 629 1 695 1 823 1
168 0 5 688 1 608 1 811 1 836 1 894 1
169 0 5 689 1 526 1 797 1 1017 1 1004 1
170 0 5 690 1 686 1 594 1 676 1 785 1
171 0 5 691 1 745 1 815 1 681 1 652 1
172 0 5 692 1 934 1 621 1 673 1 646 1
173 0 5 693 1 913 1 783 1 666 1 722 1
174 0 5 694 1 939 1 741 1 881 1 781 1
175 0 5 695 1 666 1 920 1 629 1 591 1
176 0 5 696 1 713 1 673 1 808 1 782 1
177 0 5 697 1 886 1 698 1 665 1 1007 1
178 0 5 698 1 886 1 665 1 697 1 928 1
179 0 5 699 1 895 1 560 1 841 1 765 1
180 0 5 700 1 834 1 953 1 558 1 650 1
181 0 5 701 1 830 1 597 1 578 1 714 1
182 0 5 702 1 977 1 1010 1 675 1 993 1
183 0 5 703 1 661 1 975 1 863 1 557 1
184 0 5 704 1 729 1 952 1 812 1 638 1
185 0 5 705 1 773 1 970 1 985 1 655 1
186 0 5 706 1 786 1 793 1 712 1 938 1
187 0 5 707 1 984 1 857 1 685 1 605 1
188 0 5 708 1 873 1 1007 1 544 1 557 1
189 0 5 709 1 742 1 552 1 562 1 980 1
190 0 5 710 1 951 1 924 1 544 1 530 1
191 0 5 711 1 849 1 851 1 1020 1 674 1
192 0 5 712 1 686 1 919 1 938 1 706 1
193 0 5 713 1 621 1 623 1 673 1 646 1
194 0 5 714 1 660 1 701 1 597 1 531 1
195 0 5 715 1 929 1 578 1 833 1 760 1
196 0 5 716 1 642 1 582 1 654 1 557 1
197 0 5 717 1 723 1 799 1 859 1 778 1
198 0 5 718 1 696 1 782 1 673 1 713 1
199 0 5 719 1 538 1 943 1 683 1 916 1
200 0 5 720 1 860 1 532 1 944 1 764 1
201 0 5 721 1 750 1 844 1 635 1 835 1
202 0 5 722 1 531 1 904 1 913 1 714 1
203 0 5 723 1 960 1 942 1 526 1 717 1
204 0 5 724 1 968 1 600 1 897 1 539 1
205 0 5 725 1 704 1 932 1 729 1 952 1
206 0 5 726 1 649 1 969 1 860 1 995 1
207 0 5 727 1 907 1 1010 1 950 1 529 1
208 0 5 728 1 894 1 836 1 946 1 654 1
209 0 5 729 1 932 1 534 1 764 1 855 1
210 0 5 730 1 871 1 577 1 667 1 523 1
211 0 5 731 1 682 1 655 1 557 1 642 1
212 0 5 732 1 645 1 950 1 923 1 529 1
213 0 5 733 1 521 1 590 1 574 1 771 1
214 0 5 734 1 523 1 664 1 551 1 730 1
215 0 5 735 1 985 1 858 1 970 1 983 1
216 0 5 736 1 738 1 587 1 907 1 636 1
217 0 5 737 1 687 1 823 1 592 1 695 1
218 0 5 738 1 587 1 907 1 675 1 636 1
219 0 5 739 1 999 1 964 1 580 1 917 1
220 0 5 740 1 571 1 648 1 886 1 922 1
221 0 5 741 1 881 1 596 1 939 1 694 1
222 0 5 742 1 552 1 813 1 562 1 776 1
223 0 5 743 1 901 1 533 1 613 1 644 1
224 0 5 744 1 662 1 669 1 554 1 757 1
225 0 5 745 1 652 1 536 1 691 1 802 1
226 0 5 746 1 748 1 681 1 791 1 879 1
227 0 5 747 1 809 1 806 1 688 1 608 1
228 0 5 748 1 681 1 746 1 817 1 776 1
229 0 5 749 1 801 1 840 1 528 1 981 1
230 0 5 750 1 844 1 766 1 721 1 549 1
231 0 5 751 1 568 1 588 1 571 1 946 1
232 0 5 752 1 580 1 885 1 739 1 973 1
233 0 5 753 1 542 1 1019 1 878 1 916 1
234 0 5 754 1 909 1 822 1 583 1 1005 1
235 0 5 755 1 865 1 770 1 784 1 988 1
236 0 5 756 1 820 1 632 1 622 1 901 1
237 0 5 757 1 529 1 662 1 787 1 950 1
238 0 5 758 1 891 1 546 1 662 1 1015 1
239 0 5 759 1 573 1 990 1 657 1 674 1
240 0 5 760 1 534 1 637 1 726 1 969 1
241 0 5 761 1 561 1 1003 1 663 1 709 1
242 0 5 762 1 548 1 798 1 820 1 892 1
243 0 5 763 1 555 1 786 1 522 1 535 1
244 0 5 764 1 760 1 532 1 720 1 925 1
245 0 5 765 1 639 1 611 1 947 1 560 1
246 0 5 766 1 856 1 905 1 536 1 877 1
247 0 5 767 1 808 1 634 1 921 1 527 1
248 0 5 768 1 945 1 802 1 877 1 549 1
249 0 5 769 1 992 1 1016 1 677 1 810 1
250 0 5 770 1 805 1 1003 1 598 1 980 1
251 0 5 771 1 733 1 521 1 590 1 574 1
252 0 5 772 1 747 1 608 1 983 1 688 1
253 0 5 773 1 705 1 970 1 532 1 655 1
254 0 5 774 1 775 1 675 1 977 1 569 1
255 0 5 775 1 675 1 912 1 569 1 587 1
256 0 5 776 1 988 1 813 1 598 1 770 1
257 0 5 777 1 817 1 604 1 900 1 647 1
258 0 5 778 1 859 1 960 1 919 1 785 1
259 0 5 779 1 937 1 883 1 567 1 598 1
260 0 5 780 1 771 1 537 1 590 1 574 1
261 0 5 781 1 944 1 720 1 925 1 971 1
262 0 5 782 1 718 1 934 1 808 1 634 1
263 0 5 783 1 693 1 913 1 666 1 722 1
264 0 5 784 1 882 1 653 1 748 1 861 1
265 0 5 785 1 796 1 594 1 908 1 1013 1
266 0 5 786 1 793 1 706 1 763 1 555 1
267 0 5 787 1 950 1 957 1 636 1 758 1
268 0 5 788 1 863 1 872 1 975 1 703 1
269 0 5 789 1 595 1 829 1 620 1 838 1
270 0 5 790 1 822 1 676 1 680 1 938 1
271 0 5 791 1 755 1 746 1 784 1 770 1
272 0 5 792 1 880 1 811 1 902 1 946 1
273 0 5 793 1 593 1 564 1 712 1 624 1
274 0 5 794 1 885 1 579 1 927 1 861 1
275 0 5 795 1 904 1 715 1 913 1 930 1
276 0 5 796 1 624 1 843 1 1013 1 798 1
277 0 5 797 1 689 1 961 1 1017 1 908 1
278 0 5 798 1 762 1 622 1 820 1 624 1
279 0 5 799 1 717 1 859 1 1011 1 1004 1
280 0 5 800 1 991 1 853 1 953 1 603 1
281 0 5 801 1 528 1 964 1 972 1 927 1
282 0 5 802 1 876 1 691 1 856 1 745 1
283 0 5 803 1 956 1 921 1 961 1 840 1
284 0 5 804 1 708 1 1007 1 1005 1 847 1
285 0 5 805 1 980 1 770 1 1003 1 641 1
286 0 5 806 1 902 1 880 1 809 1 946 1
287 0 5 807 1 997 1 879 1 861 1 633 1
288 0 5 808 1 634 1 615 1 713 1 921 1
289 0 5 809 1 747 1 818 1 836 1 902 1
290 0 5 810 1 521 1 893 1 574 1 677 1
291 0 5 811 1 867 1 792 1 903 1 563 1
292 0 5 812 1 952 1 833 1 816 1 638 1
293 0 5 813 1 742 1 562 1 776 1 865 1
294 0 5 814 1 665 1 557 1 697 1 698 1
295 0 5 815 1 879 1 524 1 916 1 878 1
296 0 5 816 1 545 1 612 1 887 1 941 1
297 0 5 817 1 748 1 681 1 777 1 600 1
298 0 5 818 1 809 1 588 1 728 1 1009 1
299 0 5 819 1 616 1 1016 1 967 1 899 1
300 0 5 820 1 892 1 798 1 756 1 632 1
301 0 5 821 1 936 1 691 1 948 1 954 1
302 0 5 822 1 790 1 847 1 680 1 1005 1
303 0 5 823 1 1008 1 687 1 695 1 592 1
304 0 5 824 1 749 1 840 1 964 1 528 1
305 0 5 825 1 522 1 609 1 1009 1 919 1
306 0 5 826 1 855 1 534 1 637 1 887 1
307 0 5 827 1 679 1 680 1 656 1 571 1
308 0 5 828 1 1018 1 873 1 975 1 971 1
309 0 5 829 1 800 1 989 1 789 1 993 1
310 0 5 830 1 701 1 578 1 929 1 714 1
311 0 5 831 1 657 1 650 1 948 1 954 1
312 0 5 832 1 609 1 871 1 667 1 785 1
313 0 5 833 1 578 1 929 1 612 1 816 1
314 0 5 834 1 640 1 650 1 954 1 857 1
315 0 5 835 1 653 1 721 1 633 1 536 1
316 0 5 836 1 728 1 894 1 688 1 809 1
317 0 5 837 1 641 1 653 1 794 1 861 1
318 0 5 838 1 595 1 789 1 657 1 650 1
319 0 5 839 1 841 1 915 1 699 1 895 1
320 0 5 840 1 824 1 956 1 749 1 803 1
321 0 5 841 1 839 1 699 1 895 1 868 1
322 0 5 842 1 570 1 849 1 990 1 597 1
323 0 5 843 1 632 1 796 1 624 1 706 1
324 0 5 844 1 750 1 766 1 549 1 959 1
325 0 5 845 1 920 1 876 1 672 1 854 1
326 0 5 846 1 642 1 610 1 661 1 716 1
327 0 5 847 1 1005 1 918 1 945 1 877 1
328 0 5 848 1 852 1 521 1 870 1 967 1
329 0 5 849 1 842 1 851 1 674 1 711 1
330 0 5 850 1 604 1 1019 1 777 1 647 1
331 0 5 851 1 849 1 1020 1 842 1 704 1
332 0 5 852 1 521 1 967 1 848 1 899 1
333 0 5 853 1 605 1 991 1 603 1 685 1
334 0 5 854 1 845 1 668 1 620 1 650 1
335 0 5 855 1 887 1 826 1 915 1 760 1
336 0 5 856 1 905 1 802 1 877 1 664 1
337 0 5 857 1 850 1 821 1 604 1 777 1
338 0 5 858 1 983 1 566 1 985 1 735 1
339 0 5 859 1 778 1 689 1 960 1 526 1
340 0 5 860 1 726 1 649 1 760 1 969 1
341 0 5 861 1 837 1 807 1 653 1 882 1
342 0 5 862 1 626 1 898 1 680 1 754 1
343 0 5 863 1 703 1 975 1 788 1 557 1
344 0 5 864 1 779 1 671 1 883 1 937 1
345 0 5 865 1 882 1 980 1 746 1 997 1
346 0 5 866 1 1001 1 959 1 801 1 976 1
347 0 5 867 1 903 1 563 1 596 1 811 1
348 0 5 868 1 955 1 895 1 699 1 611 1
349 0 5 869 1 1001 1 981 1 976 1 866 1
350 0 5 870 1 899 1 848 1 955 1 947 1
351 0 5 871 1 690 1 730 1 594 1 909 1
352 0 5 872 1 930 1 966 1 547 1 925 1
353 0 5 873 1 884 1 971 1 939 1 828 1
354 0 5 874 1 577 1 551 1 730 1 996 1
355 0 5 875 1 635 1 721 1 579 1 835 1
356 0 5 876 1 672 1 802 1 845 1 643 1
357 0 5 877 1 945 1 664 1 905 1 768 1
358 0 5 878 1 916 1 524 1 753 1 997 1
359 0 5 879 1 753 1 878 1 807 1 916 1
360 0 5 880 1 806 1 792 1 811 1 902 1
361 0 5 881 1 694 1 741 1 596 1 939 1
362 0 5 882 1 755 1 807 1 865 1 861 1
363 0 5 883 1 937 1 896 1 890 1 897 1
364 0 5 884 1 971 1 939 1 649 1 930 1
365 0 5 885 1 663 1 794 1 761 1 927 1
366 0 5 886 1 740 1 697 1 698 1 568 1
367 0 5 887 1 915 1 816 1 855 1 545 1
368 0 5 888 1 584 1 804 1 544 1 659 1
369 0 5 889 1 973 1 663 1 567 1 1003 1
370 0 5 890 1 896 1 940 1 628 1 554 1
371 0 5 891 1 758 1 546 1 1015 1 662 1
372 0 5 892 1 820 1 762 1 1004 1 526 1
373 0 5 893 1 853 1 603 1 677 1 574 1
374 0 5 894 1 654 1 728 1 836 1 688 1
375 0 5 895 1 868 1 699 1 618 1 560 1
376 0 5 896 1 890 1 562 1 940 1 742 1
377 0 5 897 1 539 1 554 1 748 1 600 1
378 0 5 898 1 862 1 626 1 656 1 754 1
379 0 5 899 1 967 1 852 1 848 1 521 1
380 0 5 900 1 777 1 850 1 817 1 1019 1
381 0 5 901 1 644 1 756 1 743 1 526 1
382 0 5 902 1 946 1 806 1 836 1 880 1
383 0 5 903 1 563 1 867 1 596 1 642 1
384 0 5 904 1 531 1 722 1 913 1 701 1
385 0 5 905 1 877 1 856 1 766 1 664 1
386 0 5 906 1 523 1 548 1 664 1 734 1
387 0 5 907 1 738 1 587 1 636 1 1002 1
388 0 5 908 1 540 1 594 1 785 1 796 1
389 0 5 909 1 679 1 656 1 822 1 898 1
390 0 5 910 1 839 1 994 1 541 1 525 1
391 0 5 911 1 965 1 685 1 1002 1 636 1
392 0 5 912 1 736 1 587 1 738 1 636 1
393 0 5 913 1 722 1 576 1 666 1 531 1
394 0 5 914 1 942 1 678 1 1021 1 972 1
395 0 5 915 1 560 1 887 1 816 1 545 1
396 0 5 916 1 524 1 753 1 982 1 1019 1
397 0 5 917 1 713 1 623 1 964 1 921 1
398 0 5 918 1 847 1 664 1 945 1 1005 1
399 0 5 919 1 712 1 706 1 522 1 786 1
400 0 5 920 1 695 1 931 1 544 1 543 1
401 0 5 921 1 803 1 646 1 1004 1 615 1
402 0 5 922 1 553 1 535 1 571 1 684 1
403 0 5 923 1 732 1 1015 1 950 1 529 1
404 0 5 924 1 617 1 530 1 974 1 926 1
405 0 5 925 1 944 1 781 1 532 1 788 1
406 0 5 926 1 656 1 530 1 626 1 898 1
407 0 5 927 1 794 1 528 1 623 1 801 1
408 0 5 928 1 818 1 728 1 970 1 836 1
409 0 5 929 1 578 1 833 1 715 1 612 1
410 0 5 930 1 572 1 966 1 795 1 913 1
411 0 5 931 1 672 1 543 1 643 1 823 1
412 0 5 932 1 556 1 764 1 949 1 534 1
413 0 5 933 1 957 1 636 1 787 1 587 1
414 0 5 934 1 692 1 673 1 621 1 646 1
415 0 5 935 1 1000 1 527 1 631 1 767 1
416 0 5 936 1 691 1 845 1 954 1 672 1
417 0 5 937 1 883 1 896 1 890 1 1003 1
418 0 5 938 1 564 1 676 1 790 1 712 1
419 0 5 939 1 884 1 694 1 557 1 828 1
420 0 5 940 1 628 1 891 1 546 1 1015 1
421 0 5 941 1 618 1 962 1 599 1 816 1
422 0 5 942 1 797 1 914 1 960 1 908 1
423 0 5 943 1 719 1 529 1 662 1 628 1
424 0 5 944 1 781 1 720 1 760 1 860 1
425 0 5 945 1 543 1 931 1 768 1 877 1
426 0 5 946 1 588 1 811 1 902 1 818 1
427 0 5 947 1 848 1 521 1 852 1 899 1
428 0 5 948 1 963 1 559 1 954 1 936 1
429 0 5 949 1 556 1 547 1 966 1 932 1
430 0 5 950 1 727 1 787 1 529 1 757 1
431 0 5 951 1 530 1 924 1 575 1 926 1
432 0 5 952 1 826 1 534 1 729 1 855 1
433 0 5 953 1 558 1 834 1 640 1 650 1
434 0 5 954 1 854 1 695 1 845 1 650 1
435 0 5 955 1 618 1 895 1 599 1 870 1
436 0 5 956 1 803 1 961 1 921 1 1004 1
437 0 5 957 1 933 1 965 1 669 1 758 1
438 0 5 958 1 979 1 874 1 996 1 551 1
439 0 5 959 1 875 1 972 1 844 1 721 1
440 0 5 960 1 778 1 942 1 859 1 1013 1
441 0 5 961 1 908 1 797 1 921 1 1004 1
442 0 5 962 1 870 1 616 1 599 1 941 1
443 0 5 963 1 936 1 920 1 948 1 954 1
444 0 5 964 1 917 1 824 1 927 1 801 1
445 0 5 965 1 539 1 897 1 744 1 554 1
446 0 5 966 1 930 1 872 1 547 1 591 1
447 0 5 967 1 521 1 852 1 870 1 899 1
448 0 5 968 1 897 1 746 1 600 1 748 1
449 0 5 969 1 637 1 995 1 860 1 726 1
450 0 5 970 1 846 1 582 1 983 1 654 1
451 0 5 971 1 884 1 795 1 1018 1 930 1
452 0 5 972 1 959 1 540 1 678 1 914 1
453 0 5 973 1 752 1 889 1 580 1 567 1
454 0 5 974 1 575 1 888 1 530 1 951 1
455 0 5 975 1 828 1 703 1 863 1 873 1
456 0 5 976 1 1001 1 866 1 602 1 869 1
457 0 5 977 1 537 1 675 1 991 1 574 1
458 0 5 978 1 893 1 1014 1 774 1 574 1
459 0 5 979 1 996 1 551 1 874 1 577 1
460 0 5 980 1 865 1 641 1 805 1 755 1
461 0 5 981 1 869 1 801 1 602 1 976 1
462 0 5 982 1 993 1 647 1 1010 1 702 1
463 0 5 983 1 566 1 688 1 970 1 747 1
464 0 5 984 1 857 1 640 1 850 1 834 1
465 0 5 985 1 858 1 970 1 741 1 735 1
466 0 5 986 1 1012 1 893 1 677 1 700 1
467 0 5 987 1 638 1 711 1 812 1 962 1
468 0 5 988 1 567 1 598 1 889 1 1003 1
469 0 5 989 1 829 1 993 1 1019 1 789 1
470 0 5 990 1 619 1 658 1 597 1 570 1
471 0 5 991 1 702 1 982 1 1010 1 853 1
472 0 5 992 1 677 1 590 1 769 1 1016 1
473 0 5 993 1 989 1 702 1 1010 1 829 1
474 0 5 994 1 606 1 868 1 841 1 895 1
475 0 5 995 1 715 1 833 1 578 1 929 1
476 0 5 996 1 874 1 583 1 979 1 551 1
477 0 5 997 1 878 1 542 1 807 1 552 1
478 0 5 998 1 620 1 668 1 629 1 687 1
479 0 5 999 1 602 1 739 1 976 1 964 1
480 0 5 1000 1 527 1 631 1 935 1 767 1
481 0 5 1001 1 866 1 869 1 976 1 801 1
482 0 5 1002 1 957 1 587 1 911 1 636 1
483 0 5 1003 1 761 1 598 1 561 1 805 1
484 0 5 1004 1 613 1 799 1 921 1 961 1
485 0 5 1005 1 945 1 847 1 804 1 754 1
486 0 5 1006 1 1007 1 680 1 676 1 827 1
487 0 5 1007 1 804 1 684 1 680 1 697 1
488 0 5 1008 1 643 1 629 1 592 1 823 1
489 0 5 1009 1 535 1 818 1 522 1 648 1
490 0 5 1010 1 702 1 982 1 647 1 993 1
491 0 5 1011 1 743 1 613 1 921 1 550 1
492 0 5 1012 1 769 1 810 1 677 1 893 1
493 0 5 1013 1 843 1 785 1 624 1 908 1
494 0 5 1014 1 774 1 853 1 977 1 574 1
495 0 5 1015 1 923 1 662 1 529 1 628 1
496 0 5 1016 1 521 1 967 1 590 1 852 1
497 0 5 1017 1 526 1 1004 1 797 1 820 1
498 0 5 1018 1 971 1 828 1 884 1 873 1
499 0 5 1019 1 647 1 668 1 993 1 989 1
500 0 5 1020 1 851 1 725 1 849 1 638 1
501 0 5 1021 1 528 1 840 1 678 1 914 1
502 0 5 1022 0 521 1 1022 1 1023 1 1024 1
503 0 5 1023 0 521 1 1022 1 1023 1 1024 1
504 0 5 1024 0 521 1 1022 1 1023 1 1024 1
505 0 5 1025 0 521 1 1022 1 1023 1 1024 1
506 0 5 1026 0 521 1 1022 1 1023 1 1024 1
507 0 5 1027 0 521 1 1022 1 1023 1 1024 1
508 0 5 1028 0 521 1 1022 1 1023 1 1024 1
509 0 5 1029 0 521 1 1022 1 1023 1 1024 1
510 0 5 1030 0 521 1 1022 1 1023 1 1024 1
511 0 5 1031 0 521 1 1022 1 1023 1 1024 1
512 0 5 1032 0 521 1 1022 1 1023 1 1024 1
513 0 5 1033 0 521 1 1022 1 1023 1 1024 1
514 0 5 1034 0 521 1 1022 1 1023 1 1024 1
515 0 5 1035 0 521 1 1022 1 1023 1 1024 1
516 0 5 1036 0 521 1 1022 1 1023 1 1024 1
517 0 5 1037 0 521 1 1022 1 1023 1 1024 1
518 0 5 1038 0 521 1 1022 1 1023 1 1024 1
519 0 5 1039 0 521 1 1022 1 1023 1 1024 1
520 0 5 1040 0 521 1 1022 1 1023 1 1024 1
521 0 5 1 0 520 1 519 1 518 1 517 1
522 0 5 2 1 305 1 489 1 399 1 243 1
523 0 5 3 1 386 1 214 1 210 1 31 1
524 0 5 4 1 396 1 295 1 358 1 18 1
525 0 5 5 1 21 1 191 1 390 1 118 1
526 0 5 6 1 169 1 497 1 223 1 277 1
527 0 5 7 1 111 1 480 1 66 1 397 1
528 0 5 8 1 281 1 501 1 229 1 320 1
529 0 5 9 1 237 1 142 1 430 1 267 1
530 0 5 10 1 404 1 431 1 454 1 406 1
531 0 5 11 1 384 1 202 1 194 1 393 1
532 0 5 12 1 200 1 244 1 405 1 253 1
533 0 5 13 1 30 1 223 1 87 1 93 1
534 0 5 14 1 240 1 432 1 117 1 306 1
535 0 5 15 1 128 1 402 1 489 1 35 1
536 0 5 16 1 132 1 225 1 246 1 315 1
537 0 5 17 1 457 1 260 1 54 1 155 1
538 0 5 18 1 163 1 199 1 4 1 108 1
539 0 5 19 1 445 1 377 1 149 1 204 1
540 0 5 20 1 452 1 388 1 439 1 441 1
541 0 5 21 1 81 1 390 1 5 1 467 1
542 0 5 22 1 233 1 359 1 287 1 358 1
543 0 5 23 1 425 1 411 1 485 1 400 1
544 0 5 24 1 139 1 64 1 368 1 400 1
545 0 5 25 1 296 1 92 1 395 1 367 1
546 0 5 26 1 105 1 238 1 371 1 420 1
547 0 5 27 1 71 1 139 1 138 1 352 1
548 0 5 28 1 242 1 386 1 144 1 355 1
549 0 5 29 1 115 1 324 1 230 1 113 1
550 0 5 30 1 87 1 13 1 95 1 223 1
551 0 5 31 1 354 1 214 1 63 1 459 1
552 0 5 32 1 222 1 293 1 42 1 345 1
553 0 5 33 1 402 1 131 1 48 1 68 1
554 0 5 34 1 377 1 19 1 224 1 370 1
555 0 5 35 1 15 1 243 1 489 1 266 1
556 0 5 36 1 412 1 429 1 209 1 244 1
557 0 5 37 1 141 1 183 1 294 1 326 1
558 0 5 38 1 433 1 180 1 311 1 61 1
559 0 5 39 1 428 1 434 1 137 1 443 1
560 0 5 40 1 395 1 179 1 98 1 25 1
561 0 5 41 1 241 1 483 1 42 1 189 1
562 0 5 42 1 376 1 293 1 189 1 483 1
563 0 5 43 1 383 1 291 1 347 1 426 1
564 0 5 44 1 418 1 156 1 402 1 128 1
565 0 5 45 1 69 1 97 1 459 1 55 1
566 0 5 46 1 463 1 338 1 450 1 465 1
567 0 5 47 1 468 1 78 1 259 1 369 1
568 0 5 48 1 231 1 131 1 68 1 366 1
569 0 5 49 1 255 1 254 1 333 1 85 1
570 0 5 50 1 322 1 99 1 77 1 329 1
571 0 5 51 1 220 1 307 1 402 1 160 1
572 0 5 52 1 410 1 446 1 352 1 240 1
573 0 5 53 1 239 1 154 1 77 1 61 1
574 0 5 54 1 17 1 290 1 457 1 260 1
575 0 5 55 1 454 1 64 1 24 1 431 1
576 0 5 56 1 146 1 71 1 65 1 194 1
577 0 5 57 1 354 1 210 1 31 1 459 1
578 0 5 58 1 313 1 409 1 310 1 195 1
579 0 5 59 1 355 1 115 1 274 1 341 1
580 0 5 60 1 232 1 219 1 453 1 479 1
581 0 5 61 1 81 1 191 1 239 1 154 1
582 0 5 62 1 134 1 196 1 450 1 326 1
583 0 5 63 1 57 1 476 1 234 1 31 1
584 0 5 64 1 368 1 139 1 24 1 55 1
585 0 5 65 1 56 1 140 1 146 1 77 1
586 0 5 66 1 480 1 219 1 320 1 111 1
587 0 5 67 1 218 1 216 1 116 1 482 1
588 0 5 68 1 426 1 298 1 231 1 48 1
589 0 5 69 1 45 1 97 1 485 1 63 1
590 0 5 70 1 157 1 472 1 260 1 251 1
591 0 5 71 1 146 1 138 1 56 1 446 1
592 0 5 72 1 123 1 488 1 303 1 411 1
593 0 5 73 1 273 1 104 1 186 1 124 1
594 0 5 74 1 388 1 265 1 170 1 351 1
595 0 5 75 1 110 1 269 1 100 1 249 1
596 0 5 76 1 221 1 361 1 383 1 347 1
597 0 5 77 1 53 1 154 1 194 1 65 1
598 0 5 78 1 483 1 256 1 468 1 250 1
599 0 5 79 1 98 1 421 1 435 1 442 1
600 0 5 80 1 377 1 204 1 297 1 448 1
601 0 5 81 1 492 1 249 1 299 1 447 1
602 0 5 82 1 479 1 456 1 94 1 461 1
603 0 5 83 1 85 1 333 1 187 1 464 1
604 0 5 84 1 330 1 257 1 337 1 171 1
605 0 5 85 1 83 1 333 1 187 1 165 1
606 0 5 86 1 474 1 390 1 321 1 179 1
607 0 5 87 1 30 1 126 1 95 1 13 1
608 0 5 88 1 168 1 252 1 227 1 360 1
609 0 5 89 1 312 1 305 1 351 1 2 1
610 0 5 90 1 326 1 141 1 408 1 208 1
611 0 5 91 1 119 1 245 1 435 1 98 1
612 0 5 92 1 25 1 296 1 313 1 409 1
613 0 5 93 1 484 1 223 1 491 1 401 1
614 0 5 94 1 82 1 201 1 456 1 346 1
615 0 5 95 1 126 1 30 1 87 1 401 1
616 0 5 96 1 299 1 442 1 350 1 379 1
617 0 5 97 1 404 1 69 1 454 1 45 1
618 0 5 98 1 79 1 421 1 435 1 375 1
619 0 5 99 1 470 1 331 1 239 1 500 1
620 0 5 100 1 478 1 148 1 109 1 334 1
621 0 5 101 1 193 1 172 1 103 1 95 1
622 0 5 102 1 73 1 236 1 124 1 112 1
623 0 5 103 1 101 1 193 1 397 1 407 1
624 0 5 104 1 276 1 493 1 323 1 74 1
625 0 5 105 1 149 1 437 1 370 1 34 1
626 0 5 106 1 342 1 406 1 378 1 10 1
627 0 5 107 1 151 1 437 1 149 1 344 1
628 0 5 108 1 420 1 34 1 370 1 18 1
629 0 5 109 1 72 1 488 1 123 1 175 1
630 0 5 110 1 310 1 77 1 181 1 65 1
631 0 5 111 1 7 1 480 1 66 1 262 1
632 0 5 112 1 323 1 236 1 388 1 277 1
633 0 5 113 1 115 1 315 1 59 1 201 1
634 0 5 114 1 288 1 247 1 95 1 103 1
635 0 5 115 1 355 1 113 1 59 1 201 1
636 0 5 116 1 67 1 267 1 387 1 482 1
637 0 5 117 1 449 1 240 1 14 1 129 1
638 0 5 118 1 467 1 5 1 191 1 292 1
639 0 5 119 1 245 1 179 1 40 1 98 1
640 0 5 120 1 314 1 464 1 433 1 38 1
641 0 5 121 1 317 1 460 1 341 1 285 1
642 0 5 122 1 196 1 326 1 62 1 37 1
643 0 5 123 1 488 1 72 1 411 1 325 1
644 0 5 124 1 381 1 236 1 223 1 13 1
645 0 5 125 1 212 1 430 1 267 1 9 1
646 0 5 126 1 95 1 401 1 87 1 193 1
647 0 5 127 1 499 1 462 1 257 1 330 1
648 0 5 128 1 51 1 15 1 220 1 489 1
649 0 5 129 1 206 1 340 1 240 1 364 1
650 0 5 130 1 38 1 314 1 120 1 433 1
651 0 5 131 1 33 1 68 1 48 1 489 1
652 0 5 132 1 225 1 16 1 171 1 246 1
653 0 5 133 1 315 1 264 1 317 1 121 1
654 0 5 134 1 374 1 62 1 196 1 450 1
655 0 5 135 1 122 1 211 1 253 1 185 1
656 0 5 136 1 389 1 307 1 378 1 366 1
657 0 5 137 1 311 1 239 1 130 1 39 1
658 0 5 138 1 50 1 470 1 99 1 77 1
659 0 5 139 1 24 1 64 1 368 1 71 1
660 0 5 140 1 65 1 194 1 56 1 77 1
661 0 5 141 1 183 1 326 1 455 1 431 1
662 0 5 142 1 224 1 108 1 237 1 238 1
663 0 5 143 1 365 1 121 1 369 1 241 1
664 0 5 144 1 398 1 357 1 214 1 386 1
665 0 5 145 1 294 1 178 1 177 1 106 1
666 0 5 146 1 175 1 71 1 56 1 173 1
667 0 5 147 1 210 1 203 1 312 1 394 1
668 0 5 148 1 334 1 499 1 123 1 478 1
669 0 5 149 1 224 1 34 1 437 1 105 1
670 0 5 150 1 1 1 81 1 466 1 492 1
671 0 5 151 1 107 1 344 1 105 1 363 1
672 0 5 152 1 356 1 411 1 325 1 357 1
673 0 5 153 1 176 1 101 1 172 1 193 1
674 0 5 154 1 53 1 61 1 329 1 77 1
675 0 5 155 1 255 1 457 1 218 1 254 1
676 0 5 156 1 270 1 44 1 159 1 302 1
677 0 5 157 1 472 1 249 1 290 1 75 1
678 0 5 158 1 394 1 501 1 452 1 147 1
679 0 5 159 1 307 1 389 1 160 1 128 1
680 0 5 160 1 307 1 159 1 342 1 51 1
681 0 5 161 1 228 1 226 1 297 1 171 1
682 0 5 162 1 211 1 122 1 135 1 498 1
683 0 5 163 1 32 1 18 1 4 1 199 1
684 0 5 164 1 160 1 487 1 51 1 177 1
685 0 5 165 1 49 1 85 1 391 1 333 1
686 0 5 166 1 170 1 192 1 186 1 399 1
687 0 5 167 1 217 1 303 1 72 1 123 1
688 0 5 168 1 88 1 463 1 227 1 374 1
689 0 5 169 1 277 1 339 1 6 1 440 1
690 0 5 170 1 166 1 351 1 74 1 265 1
691 0 5 171 1 416 1 301 1 282 1 225 1
692 0 5 172 1 414 1 153 1 101 1 176 1
693 0 5 173 1 263 1 393 1 202 1 24 1
694 0 5 174 1 361 1 135 1 162 1 185 1
695 0 5 175 1 400 1 303 1 488 1 434 1
696 0 5 176 1 198 1 193 1 262 1 114 1
697 0 5 177 1 145 1 366 1 178 1 48 1
698 0 5 178 1 145 1 177 1 366 1 408 1
699 0 5 179 1 321 1 375 1 40 1 86 1
700 0 5 180 1 280 1 157 1 38 1 333 1
701 0 5 181 1 11 1 194 1 310 1 77 1
702 0 5 182 1 471 1 490 1 473 1 218 1
703 0 5 183 1 343 1 455 1 141 1 431 1
704 0 5 184 1 205 1 331 1 5 1 118 1
705 0 5 185 1 253 1 450 1 465 1 12 1
706 0 5 186 1 399 1 266 1 104 1 192 1
707 0 5 187 1 85 1 83 1 333 1 464 1
708 0 5 188 1 284 1 487 1 353 1 24 1
709 0 5 189 1 41 1 42 1 483 1 241 1
710 0 5 190 1 24 1 268 1 139 1 55 1
711 0 5 191 1 467 1 329 1 61 1 331 1
712 0 5 192 1 166 1 399 1 186 1 2 1
713 0 5 193 1 176 1 397 1 103 1 7 1
714 0 5 194 1 140 1 56 1 11 1 202 1
715 0 5 195 1 475 1 275 1 409 1 313 1
716 0 5 196 1 62 1 326 1 134 1 450 1
717 0 5 197 1 279 1 6 1 203 1 258 1
718 0 5 198 1 262 1 114 1 415 1 95 1
719 0 5 199 1 163 1 18 1 4 1 32 1
720 0 5 200 1 424 1 244 1 261 1 12 1
721 0 5 201 1 355 1 315 1 230 1 439 1
722 0 5 202 1 393 1 384 1 173 1 275 1
723 0 5 203 1 197 1 6 1 422 1 440 1
724 0 5 204 1 80 1 391 1 445 1 423 1
725 0 5 205 1 5 1 500 1 412 1 331 1
726 0 5 206 1 340 1 129 1 240 1 449 1
727 0 5 207 1 125 1 430 1 9 1 387 1
728 0 5 208 1 316 1 134 1 374 1 408 1
729 0 5 209 1 184 1 432 1 205 1 412 1
730 0 5 210 1 31 1 351 1 214 1 57 1
731 0 5 211 1 135 1 122 1 37 1 326 1
732 0 5 212 1 403 1 125 1 430 1 495 1
733 0 5 213 1 251 1 54 1 260 1 17 1
734 0 5 214 1 3 1 31 1 57 1 63 1
735 0 5 215 1 465 1 338 1 463 1 374 1
736 0 5 216 1 392 1 67 1 482 1 155 1
737 0 5 217 1 72 1 23 1 411 1 303 1
738 0 5 218 1 216 1 387 1 67 1 155 1
739 0 5 219 1 60 1 479 1 66 1 232 1
740 0 5 220 1 366 1 51 1 177 1 307 1
741 0 5 221 1 383 1 135 1 361 1 174 1
742 0 5 222 1 293 1 189 1 42 1 32 1
743 0 5 223 1 491 1 124 1 381 1 93 1
744 0 5 224 1 34 1 108 1 445 1 149 1
745 0 5 225 1 171 1 132 1 16 1 271 1
746 0 5 226 1 271 1 228 1 345 1 235 1
747 0 5 227 1 252 1 289 1 316 1 463 1
748 0 5 228 1 297 1 226 1 377 1 161 1
749 0 5 229 1 304 1 320 1 8 1 461 1
750 0 5 230 1 324 1 201 1 113 1 16 1
751 0 5 231 1 131 1 68 1 48 1 33 1
752 0 5 232 1 453 1 60 1 219 1 479 1
753 0 5 233 1 359 1 358 1 396 1 4 1
754 0 5 234 1 63 1 485 1 57 1 342 1
755 0 5 235 1 362 1 271 1 460 1 264 1
756 0 5 236 1 124 1 112 1 381 1 300 1
757 0 5 237 1 142 1 267 1 430 1 224 1
758 0 5 238 1 371 1 26 1 267 1 105 1
759 0 5 239 1 61 1 53 1 154 1 329 1
760 0 5 240 1 244 1 14 1 117 1 340 1
761 0 5 241 1 143 1 483 1 365 1 369 1
762 0 5 242 1 278 1 372 1 300 1 28 1
763 0 5 243 1 35 1 15 1 266 1 489 1
764 0 5 244 1 14 1 36 1 412 1 209 1
765 0 5 245 1 40 1 119 1 179 1 98 1
766 0 5 246 1 230 1 324 1 16 1 385 1
767 0 5 247 1 111 1 7 1 480 1 415 1
768 0 5 248 1 29 1 357 1 425 1 144 1
769 0 5 249 1 492 1 157 1 75 1 472 1
770 0 5 250 1 285 1 235 1 256 1 78 1
771 0 5 251 1 54 1 260 1 17 1 70 1
772 0 5 252 1 46 1 450 1 463 1 338 1
773 0 5 253 1 185 1 450 1 12 1 465 1
774 0 5 254 1 494 1 458 1 373 1 457 1
775 0 5 255 1 254 1 392 1 49 1 182 1
776 0 5 256 1 293 1 250 1 271 1 228 1
777 0 5 257 1 380 1 297 1 330 1 84 1
778 0 5 258 1 339 1 440 1 203 1 197 1
779 0 5 259 1 344 1 78 1 47 1 468 1
780 0 5 260 1 17 1 157 1 457 1 54 1
781 0 5 261 1 424 1 405 1 253 1 12 1
782 0 5 262 1 114 1 288 1 198 1 176 1
783 0 5 263 1 188 1 173 1 24 1 393 1
784 0 5 264 1 133 1 228 1 271 1 235 1
785 0 5 265 1 74 1 493 1 388 1 440 1
786 0 5 266 1 186 1 243 1 399 1 2 1
787 0 5 267 1 116 1 430 1 238 1 237 1
788 0 5 268 1 27 1 343 1 405 1 455 1
789 0 5 269 1 100 1 148 1 309 1 130 1
790 0 5 270 1 302 1 156 1 159 1 160 1
791 0 5 271 1 226 1 161 1 235 1 256 1
792 0 5 272 1 88 1 360 1 291 1 227 1
793 0 5 273 1 266 1 186 1 44 1 104 1
794 0 5 274 1 407 1 365 1 121 1 317 1
795 0 5 275 1 52 1 129 1 451 1 410 1
796 0 5 276 1 265 1 104 1 323 1 388 1
797 0 5 277 1 422 1 441 1 169 1 497 1
798 0 5 278 1 102 1 300 1 112 1 276 1
799 0 5 279 1 6 1 197 1 484 1 339 1
800 0 5 280 1 309 1 260 1 157 1 472 1
801 0 5 281 1 229 1 8 1 461 1 346 1
802 0 5 282 1 356 1 357 1 336 1 113 1
803 0 5 283 1 436 1 401 1 397 1 441 1
804 0 5 284 1 487 1 485 1 368 1 327 1
805 0 5 285 1 250 1 460 1 483 1 121 1
806 0 5 286 1 360 1 382 1 227 1 289 1
807 0 5 287 1 341 1 362 1 113 1 359 1
808 0 5 288 1 247 1 126 1 176 1 95 1
809 0 5 289 1 298 1 227 1 286 1 316 1
810 0 5 290 1 1 1 249 1 492 1 54 1
811 0 5 291 1 272 1 168 1 426 1 360 1
812 0 5 292 1 118 1 184 1 432 1 331 1
813 0 5 293 1 42 1 256 1 222 1 345 1
814 0 5 294 1 106 1 37 1 145 1 177 1
815 0 5 295 1 161 1 171 1 297 1 226 1
816 0 5 296 1 367 1 395 1 421 1 292 1
817 0 5 297 1 257 1 80 1 228 1 161 1
818 0 5 298 1 289 1 408 1 489 1 48 1
819 0 5 299 1 110 1 75 1 96 1 442 1
820 0 5 300 1 112 1 372 1 236 1 497 1
821 0 5 301 1 337 1 130 1 428 1 330 1
822 0 5 302 1 270 1 234 1 156 1 389 1
823 0 5 303 1 72 1 217 1 411 1 23 1
824 0 5 304 1 320 1 8 1 444 1 501 1
825 0 5 305 1 89 1 170 1 2 1 15 1
826 0 5 306 1 335 1 14 1 432 1 117 1
827 0 5 307 1 159 1 136 1 160 1 389 1
828 0 5 308 1 455 1 162 1 498 1 353 1
829 0 5 309 1 469 1 473 1 499 1 269 1
830 0 5 310 1 181 1 11 1 194 1 77 1
831 0 5 311 1 38 1 61 1 433 1 239 1
832 0 5 312 1 147 1 89 1 351 1 170 1
833 0 5 313 1 92 1 475 1 409 1 292 1
834 0 5 314 1 38 1 433 1 180 1 120 1
835 0 5 315 1 16 1 133 1 355 1 201 1
836 0 5 316 1 208 1 289 1 168 1 374 1
837 0 5 317 1 121 1 341 1 460 1 133 1
838 0 5 318 1 100 1 478 1 269 1 65 1
839 0 5 319 1 321 1 390 1 86 1 179 1
840 0 5 320 1 229 1 501 1 8 1 304 1
841 0 5 321 1 319 1 86 1 179 1 390 1
842 0 5 322 1 329 1 331 1 50 1 154 1
843 0 5 323 1 493 1 276 1 112 1 104 1
844 0 5 324 1 230 1 439 1 201 1 355 1
845 0 5 325 1 334 1 416 1 152 1 356 1
846 0 5 326 1 37 1 141 1 450 1 90 1
847 0 5 327 1 398 1 485 1 302 1 425 1
848 0 5 328 1 427 1 350 1 379 1 435 1
849 0 5 329 1 191 1 331 1 322 1 154 1
850 0 5 330 1 337 1 120 1 380 1 464 1
851 0 5 331 1 500 1 329 1 191 1 292 1
852 0 5 332 1 328 1 427 1 379 1 447 1
853 0 5 333 1 373 1 471 1 54 1 83 1
854 0 5 334 1 434 1 325 1 100 1 269 1
855 0 5 335 1 306 1 367 1 209 1 14 1
856 0 5 336 1 246 1 385 1 357 1 282 1
857 0 5 337 1 120 1 464 1 187 1 83 1
858 0 5 338 1 465 1 215 1 463 1 174 1
859 0 5 339 1 258 1 440 1 279 1 197 1
860 0 5 340 1 200 1 206 1 240 1 449 1
861 0 5 341 1 133 1 59 1 362 1 317 1
862 0 5 342 1 378 1 136 1 307 1 389 1
863 0 5 343 1 268 1 183 1 455 1 431 1
864 0 5 344 1 151 1 107 1 259 1 445 1
865 0 5 345 1 235 1 460 1 256 1 362 1
866 0 5 346 1 481 1 456 1 315 1 94 1
867 0 5 347 1 291 1 383 1 43 1 426 1
868 0 5 348 1 375 1 179 1 86 1 321 1
869 0 5 349 1 461 1 481 1 456 1 82 1
870 0 5 350 1 442 1 435 1 328 1 150 1
871 0 5 351 1 210 1 312 1 89 1 57 1
872 0 5 352 1 27 1 268 1 446 1 405 1
873 0 5 353 1 188 1 308 1 455 1 498 1
874 0 5 354 1 476 1 438 1 459 1 31 1
875 0 5 355 1 439 1 28 1 201 1 113 1
876 0 5 356 1 282 1 152 1 325 1 357 1
877 0 5 357 1 385 1 144 1 336 1 246 1
878 0 5 358 1 477 1 359 1 22 1 295 1
879 0 5 359 1 295 1 287 1 226 1 345 1
880 0 5 360 1 272 1 286 1 291 1 382 1
881 0 5 361 1 221 1 174 1 383 1 43 1
882 0 5 362 1 264 1 345 1 341 1 460 1
883 0 5 363 1 417 1 259 1 344 1 377 1
884 0 5 364 1 451 1 353 1 498 1 261 1
885 0 5 365 1 274 1 143 1 407 1 121 1
886 0 5 366 1 178 1 177 1 220 1 408 1
887 0 5 367 1 335 1 395 1 296 1 306 1
888 0 5 368 1 64 1 55 1 454 1 234 1
889 0 5 369 1 47 1 121 1 468 1 483 1
890 0 5 370 1 376 1 363 1 105 1 34 1
891 0 5 371 1 238 1 26 1 105 1 420 1
892 0 5 372 1 300 1 441 1 484 1 436 1
893 0 5 373 1 1 1 458 1 290 1 466 1
894 0 5 374 1 208 1 316 1 134 1 168 1
895 0 5 375 1 86 1 179 1 435 1 321 1
896 0 5 376 1 370 1 417 1 363 1 420 1
897 0 5 377 1 19 1 445 1 448 1 204 1
898 0 5 378 1 342 1 136 1 406 1 389 1
899 0 5 379 1 350 1 96 1 328 1 442 1
900 0 5 380 1 84 1 257 1 330 1 297 1
901 0 5 381 1 13 1 223 1 124 1 236 1
902 0 5 382 1 286 1 426 1 289 1 360 1
903 0 5 383 1 347 1 291 1 62 1 43 1
904 0 5 384 1 275 1 202 1 11 1 446 1
905 0 5 385 1 336 1 357 1 246 1 31 1
906 0 5 386 1 20 1 3 1 144 1 31 1
907 0 5 387 1 207 1 218 1 216 1 430 1
908 0 5 388 1 20 1 441 1 265 1 74 1
909 0 5 389 1 234 1 57 1 351 1 342 1
910 0 5 390 1 21 1 86 1 25 1 5 1
911 0 5 391 1 165 1 482 1 49 1 116 1
912 0 5 392 1 155 1 255 1 216 1 165 1
913 0 5 393 1 173 1 71 1 202 1 384 1
914 0 5 394 1 422 1 158 1 147 1 501 1
915 0 5 395 1 367 1 25 1 319 1 335 1
916 0 5 396 1 4 1 358 1 295 1 22 1
917 0 5 397 1 444 1 103 1 320 1 229 1
918 0 5 398 1 144 1 327 1 214 1 485 1
919 0 5 399 1 192 1 2 1 258 1 265 1
920 0 5 400 1 139 1 325 1 175 1 443 1
921 0 5 401 1 283 1 441 1 436 1 484 1
922 0 5 402 1 128 1 44 1 15 1 51 1
923 0 5 403 1 495 1 430 1 9 1 212 1
924 0 5 404 1 97 1 431 1 10 1 406 1
925 0 5 405 1 12 1 261 1 352 1 244 1
926 0 5 406 1 10 1 431 1 404 1 454 1
927 0 5 407 1 103 1 274 1 444 1 281 1
928 0 5 408 1 90 1 450 1 298 1 178 1
929 0 5 409 1 58 1 313 1 310 1 195 1
930 0 5 410 1 446 1 352 1 52 1 451 1
931 0 5 411 1 23 1 152 1 425 1 400 1
932 0 5 412 1 209 1 36 1 184 1 205 1
933 0 5 413 1 67 1 437 1 107 1 149 1
934 0 5 414 1 153 1 172 1 95 1 30 1
935 0 5 415 1 480 1 114 1 288 1 247 1
936 0 5 416 1 443 1 301 1 171 1 428 1
937 0 5 417 1 259 1 363 1 370 1 344 1
938 0 5 418 1 156 1 270 1 128 1 243 1
939 0 5 419 1 174 1 364 1 162 1 122 1
940 0 5 420 1 26 1 105 1 370 1 108 1
941 0 5 421 1 79 1 98 1 296 1 25 1
942 0 5 422 1 394 1 440 1 203 1 484 1
943 0 5 423 1 18 1 199 1 163 1 108 1
944 0 5 424 1 261 1 405 1 200 1 240 1
945 0 5 425 1 485 1 357 1 398 1 327 1
946 0 5 426 1 382 1 68 1 208 1 298 1
947 0 5 427 1 91 1 350 1 328 1 379 1
948 0 5 428 1 137 1 39 1 443 1 130 1
949 0 5 429 1 138 1 412 1 36 1 352 1
950 0 5 430 1 9 1 267 1 125 1 238 1
951 0 5 431 1 190 1 454 1 55 1 24 1
952 0 5 432 1 292 1 184 1 331 1 205 1
953 0 5 433 1 38 1 180 1 61 1 314 1
954 0 5 434 1 130 1 416 1 137 1 428 1
955 0 5 435 1 348 1 350 1 375 1 150 1
956 0 5 436 1 283 1 320 1 441 1 397 1
957 0 5 437 1 413 1 267 1 67 1 116 1
958 0 5 438 1 69 1 97 1 45 1 354 1
959 0 5 439 1 452 1 346 1 20 1 324 1
960 0 5 440 1 203 1 258 1 422 1 265 1
961 0 5 441 1 436 1 277 1 497 1 8 1
962 0 5 442 1 79 1 421 1 98 1 435 1
963 0 5 443 1 428 1 39 1 416 1 325 1
964 0 5 444 1 281 1 397 1 8 1 66 1
965 0 5 445 1 391 1 437 1 149 1 34 1
966 0 5 446 1 352 1 52 1 27 1 410 1
967 0 5 447 1 379 1 96 1 328 1 299 1
968 0 5 448 1 204 1 80 1 445 1 19 1
969 0 5 449 1 129 1 206 1 240 1 340 1
970 0 5 450 1 90 1 465 1 463 1 326 1
971 0 5 451 1 498 1 364 1 353 1 261 1
972 0 5 452 1 20 1 439 1 158 1 281 1
973 0 5 453 1 369 1 47 1 121 1 317 1
974 0 5 454 1 55 1 404 1 431 1 97 1
975 0 5 455 1 343 1 183 1 162 1 308 1
976 0 5 456 1 82 1 481 1 94 1 479 1
977 0 5 457 1 182 1 155 1 54 1 218 1
978 0 5 458 1 1 1 290 1 494 1 492 1
979 0 5 459 1 438 1 476 1 69 1 354 1
980 0 5 460 1 285 1 345 1 121 1 250 1
981 0 5 461 1 82 1 349 1 229 1 456 1
982 0 5 462 1 127 1 4 1 396 1 471 1
983 0 5 463 1 338 1 450 1 252 1 465 1
984 0 5 464 1 187 1 83 1 85 1 180 1
985 0 5 465 1 215 1 185 1 450 1 338 1
986 0 5 466 1 1 1 373 1 458 1 290 1
987 0 5 467 1 150 1 81 1 350 1 191 1
988 0 5 468 1 78 1 256 1 47 1 235 1
989 0 5 469 1 127 1 473 1 499 1 309 1
990 0 5 470 1 154 1 239 1 99 1 50 1
991 0 5 471 1 333 1 165 1 155 1 457 1
992 0 5 472 1 309 1 249 1 75 1 157 1
993 0 5 473 1 462 1 127 1 469 1 499 1
994 0 5 474 1 390 1 86 1 21 1 321 1
995 0 5 475 1 117 1 449 1 306 1 313 1
996 0 5 476 1 459 1 63 1 438 1 31 1
997 0 5 477 1 287 1 345 1 22 1 460 1
998 0 5 478 1 109 1 167 1 148 1 72 1
999 0 5 479 1 219 1 60 1 94 1 66 1
1000 0 5 480 1 415 1 66 1 111 1 7 1
1001 0 5 481 1 349 1 346 1 456 1 461 1
1002 0 5 482 1 49 1 387 1 391 1 165 1
1003 0 5 483 1 78 1 47 1 250 1 241 1
1004 0 5 484 1 6 1 497 1 93 1 441 1
1005 0 5 485 1 327 1 63 1 302 1 234 1
1006 0 5 486 1 164 1 156 1 160 1 270 1
1007 0 5 487 1 302 1 160 1 177 1 284 1
1008 0 5 488 1 123 1 303 1 148 1 411 1
1009 0 5 489 1 2 1 305 1 298 1 366 1
1010 0 5 490 1 462 1 473 1 182 1 471 1
1011 0 5 491 1 93 1 279 1 484 1 401 1
1012 0 5 492 1 1 1 466 1 150 1 373 1
1013 0 5 493 1 104 1 276 1 265 1 440 1
1014 0 5 494 1 1 1 458 1 290 1 54 1
1015 0 5 495 1 9 1 108 1 238 1 26 1
1016 0 5 496 1 249 1 299 1 157 1 472 1
1017 0 5 497 1 6 1 169 1 277 1 236 1
1018 0 5 498 1 308 1 162 1 451 1 455 1
1019 0 5 499 1 330 1 334 1 380 1 396 1
1020 0 5 500 1 5 1 331 1 191 1 329 1
1021 0 5 501 1 158 1 394 1 452 1 346 1
1022 0 5 502 0 520 1 519 1 518 1 517 1
1023 0 5 503 0 520 1 519 1 518 1 517 1
1024 0 5 504 0 520 1 519 1 518 1 517 1
1025 0 5 505 0 520 1 519 1 518 1 517 1
1026 0 5 506 0 520 1 519 1 518 1 517 1
1027 0 5 507 0 520 1 519 1 518 1 517 1
1028 0 5 508 0 520 1 519 1 518 1 517 1
1029 0 5 509 0 520 1 519 1 518 1 517 1
1030 0 5 510 0 520 1 519 1 518 1 517 1
1031 0 5 511 0 520 1 519 1 518 1 517 1
1032 0 5 512 0 520 1 519 1 518 1 517 1
1033 0 5 513 0 520 1 519 1 518 1 517 1
1034 0 5 514 0 520 1 519 1 518 1 517 1
1035 0 5 515 0 520 1 519 1 518 1 517 1
1036 0 5 516 0 520 1 519 1 518 1 517 1
1037 0 5 517 0 520 1 519 1 518 1 517 1
1038 0 5 518 0 520 1 519 1 518 1 517 1
1039 0 5 519 0 520 1 519 1 518 1 517 1
1040 0 5 520 0 520 1 519 1 518 1 517 1
-1
EOF
